131 150 49 130 14 123 195 119 161 46 141 24 120 85 108 183 196 190 144 59 139 129 71 50 47 38 75 170 158 156 167 41 11 44 162 153 138 184 188 160 15 152 18 122 145 157 79 13 55 86 126 6 58 159 65 52 87 197 106 173 7 117 198 19 20 63 69 191 28 102 149 31 103 80 54 88 116 56 95 5 1 136 174 78 112 148 2 177 76 42 33 186 118 17 182 30 105 48 99 73 97 140 172 132 193 3 43 107 113 81 39 51 180 66 187 90 57 67 179 115 155 178 124 181 23 40 151 101 176 146 83 36 133 61 27 164 62 171 9 128 98 168 12 29 10 22 169 70 185 8 25 137 89 96 114 84 45 72 26 199 4 37 53 127 147 110 100 21 60 94 166 109 77 64 121 91 74 163 104 0 93 82 125 111 165 192 189 194 16 143 175 92 154 34 135 134 142 32 68 35 

